25
-1 -1 -1 -1 -1 -1 -1 -1 86 -1 15 92 -1 1 -1 71 -1 -1 35 -1 -1 -1 -1 -1 29
-1 -1 -1 -1 27 -1 80 -1 -1 -1 -1 21 -1 26 -1 -1 -1 -1 -1 -1 -1 -1 36 95 -1
-1 -1 -1 -1 -1 73 73 36 -1 -1 -1 -1 -1 -1 68 26 -1 -1 29 -1 -1 -1 -1 -1 28
-1 -1 -1 -1 -1 -1 -1 27 -1 -1 -1 -1 -1 -1 80 -1 -1 83 30 -1 -1 2 28 35 93
-1 27 -1 -1 -1 -1 56 -1 -1 -1 67 58 -1 -1 41 -1 -1 24 -1 -1 -1 -1 -1 37 42
-1 -1 73 -1 -1 -1 -1 -1 -1 -1 -1 -1 -1 -1 37 -1 -1 -1 -1 -1 24 -1 -1 -1 -1
-1 80 73 -1 56 -1 -1 -1 29 -1 84 12 26 2 -1 17 -1 -1 70 -1 -1 -1 -1 -1 -1
-1 -1 36 27 -1 -1 -1 -1 -1 -1 -1 68 81 -1 -1 29 56 25 -1 23 88 -1 70 -1 -1
86 -1 -1 -1 -1 -1 29 -1 -1 -1 57 -1 -1 -1 -1 -1 -1 5 -1 -1 -1 95 -1 -1 -1
-1 -1 -1 -1 -1 -1 -1 -1 -1 -1 -1 -1 64 50 -1 -1 45 71 19 51 -1 14 65 -1 67
15 -1 -1 -1 67 -1 84 -1 57 -1 -1 -1 -1 92 51 -1 65 -1 8 -1 -1 -1 -1 78 -1
92 21 -1 -1 58 -1 12 68 -1 -1 -1 -1 -1 -1 99 -1 -1 -1 -1 -1 -1 -1 -1 -1 60
-1 -1 -1 -1 -1 -1 26 81 -1 64 -1 -1 -1 -1 -1 78 70 -1 -1 39 -1 91 -1 86 -1
1 26 -1 -1 -1 -1 2 -1 -1 50 92 -1 -1 -1 -1 -1 27 29 56 -1 -1 -1 -1 -1 -1
-1 -1 68 80 41 37 -1 -1 -1 -1 51 99 -1 -1 -1 -1 -1 -1 -1 19 -1 -1 51 -1 89
71 -1 26 -1 -1 -1 17 29 -1 -1 -1 -1 78 -1 -1 -1 -1 -1 -1 -1 -1 -1 -1 -1 11
-1 -1 -1 -1 -1 -1 -1 56 -1 45 65 -1 70 27 -1 -1 -1 -1 -1 -1 28 -1 -1 -1 -1
-1 -1 -1 83 24 -1 -1 25 5 71 -1 -1 -1 29 -1 -1 -1 -1 -1 -1 -1 -1 -1 21 -1
35 -1 29 30 -1 -1 70 -1 -1 19 8 -1 -1 56 -1 -1 -1 -1 -1 -1 -1 -1 -1 15 -1
-1 -1 -1 -1 -1 -1 -1 23 -1 51 -1 -1 39 -1 19 -1 -1 -1 -1 -1 -1 55 45 -1 -1
-1 -1 -1 -1 -1 24 -1 88 -1 -1 -1 -1 -1 -1 -1 -1 28 -1 -1 -1 -1 -1 50 -1 -1
-1 -1 -1 2 -1 -1 -1 -1 95 14 -1 -1 91 -1 -1 -1 -1 -1 -1 55 -1 -1 -1 -1 64
-1 36 -1 28 -1 -1 -1 70 -1 65 -1 -1 -1 -1 51 -1 -1 -1 -1 45 50 -1 -1 -1 -1
-1 95 -1 35 37 -1 -1 -1 -1 -1 78 -1 86 -1 -1 -1 -1 21 15 -1 -1 -1 -1 -1 -1
29 -1 28 93 42 -1 -1 -1 -1 67 -1 60 -1 -1 89 11 -1 -1 -1 -1 -1 64 -1 -1 -1